
(set-logic HORN)
(define-fun Z_300 () Int 0)
(define-fun S_106 ((x Int)) Int (+ x 1))
(declare-datatypes ((Bool_55 0)) (((false_55) (true_55))))
(declare-fun diseqBool_23 (Bool_55 Bool_55) Bool)
(declare-fun isfalse_23 (Bool_55) Bool)
(declare-fun istrue_23 (Bool_55) Bool)
(assert (isfalse_23 false_55))
(assert (istrue_23 true_55))
(assert (diseqBool_23 false_55 true_55))
(assert (diseqBool_23 true_55 false_55))
(declare-fun and_55 (Bool_55 Bool_55 Bool_55) Bool)
(declare-fun or_55 (Bool_55 Bool_55 Bool_55) Bool)
(declare-fun hence_55 (Bool_55 Bool_55 Bool_55) Bool)
(declare-fun not_55 (Bool_55 Bool_55) Bool)
(assert (and_55 false_55 false_55 false_55))
(assert (and_55 false_55 true_55 false_55))
(assert (and_55 false_55 false_55 true_55))
(assert (and_55 true_55 true_55 true_55))
(assert (or_55 false_55 false_55 false_55))
(assert (or_55 true_55 true_55 false_55))
(assert (or_55 true_55 false_55 true_55))
(assert (or_55 true_55 true_55 true_55))
(assert (hence_55 true_55 false_55 false_55))
(assert (hence_55 false_55 true_55 false_55))
(assert (hence_55 true_55 false_55 true_55))
(assert (hence_55 true_55 true_55 true_55))
(assert (not_55 true_55 false_55))
(assert (not_55 false_55 true_55))
(declare-fun diseqInt (Int Int) Bool)
(declare-fun projS_103 (Int Int) Bool)
(declare-fun isZ_106 (Int) Bool)
(declare-fun isS_106 (Int) Bool)
(assert (forall ((x_2954 Int))
	(projS_103 x_2954 (S_106 x_2954))))
(assert (isZ_106 Z_300))
(assert (forall ((x_2956 Int))
	(isS_106 (S_106 x_2956))))
(assert (forall ((x_2957 Int))
	(diseqInt Z_300 (S_106 x_2957))))
(assert (forall ((x_2958 Int))
	(diseqInt (S_106 x_2958) Z_300)))
(assert (forall ((x_2959 Int) (x_2960 Int))
	(=> (diseqInt x_2959 x_2960) (diseqInt (S_106 x_2959) (S_106 x_2960)))))
(declare-fun x_2941 (Bool_55 Int Int) Bool)
(assert (forall ((x_2944 Bool_55) (x_2943 Int) (z_301 Int))
	(=> (x_2941 x_2944 z_301 x_2943) (x_2941 x_2944 (S_106 z_301) (S_106 x_2943)))))
(assert (forall ((z_301 Int))
	(x_2941 false_55 (S_106 z_301) Z_300)))
(assert (forall ((y_238 Int))
	(x_2941 true_55 Z_300 y_238)))
(assert (forall ((m_9 Int) (n_21 Int))
	(=> (and true (x_2941 true_55 m_9 n_21) (x_2941 false_55 m_9 (S_106 n_21))) false)))
(check-sat)
